; benchmark generated from python API
(set-info :status unknown)
(declare-fun W_S1_V5 () Bool)
(declare-fun W_S1_V3 () Bool)
(declare-fun R_S2_V4 () Bool)
(declare-fun R_S1_V5 () Bool)
(declare-fun R_S1_V2 () Bool)
(declare-fun R_S1_V3 () Bool)
(declare-fun W_S2_V4 () Bool)
(declare-fun W_S2_V5 () Bool)
(declare-fun W_S2_V3 () Bool)
(declare-fun W_S2_V2 () Bool)
(declare-fun R_S2_V5 () Bool)
(declare-fun R_S2_V1 () Bool)
(declare-fun R_S2_V3 () Bool)
(declare-fun W_S1_V4 () Bool)
(declare-fun W_S2_V1 () Bool)
(declare-fun W_S1_V1 () Bool)
(declare-fun W_S1_V2 () Bool)
(declare-fun R_S1_V4 () Bool)
(declare-fun R_S1_V1 () Bool)
(declare-fun R_S2_V2 () Bool)
(declare-fun R_E1_V4 () Bool)
(declare-fun R_E1_V5 () Bool)
(declare-fun R_E1_V1 () Bool)
(declare-fun R_E1_V2 () Bool)
(declare-fun R_E1_V3 () Bool)
(assert
 (let (($x583 (not W_S1_V5)))
 (let (($x1862 (not W_S1_V3)))
 (let (($x1036 (not R_S2_V4)))
 (let (($x1344 (not R_S1_V5)))
 (let (($x3728 (not R_S1_V2)))
 (let (($x1051 (not R_S1_V3)))
 (let (($x2493 (not (and $x1051 $x3728 $x1344 $x1036 $x1862 $x583))))
 (let (($x1872 (not (and $x1051 $x3728 $x1344 $x1862 $x583 (not W_S2_V4)))))
 (let (($x1664 (not (and $x1051 $x3728 $x1862 (not W_S2_V5) (not W_S2_V4)))))
 (let (($x5794 (not (and $x3728 $x1344 $x583 (not W_S2_V3) (not W_S2_V4)))))
 (let (($x1879 (not W_S2_V2)))
 (let (($x5434 (not R_S2_V5)))
 (let (($x2379 (not R_S2_V1)))
 (let (($x2392 (not R_S2_V3)))
 (let (($x1880 (not (and $x1051 $x1344 $x2392 $x2379 $x5434 $x1862 $x583 $x1879))))
 (let (($x2312 (not (and $x1051 $x1344 $x1036 $x1862 $x583 $x1879))))
 (let (($x2653 (not (and $x1051 $x1344 $x1862 $x583 $x1879 (not W_S2_V4)))))
 (let (($x3021 (not (and $x2392 $x2379 $x5434 $x1036 $x1879))))
 (let (($x3420 (not (and $x1036 $x1862 $x583 $x1879 (not W_S2_V5) (not W_S2_V3)))))
 (let (($x3668 (not W_S1_V4)))
 (let (($x1601 (and $x1862 $x3668 $x583)))
 (let (($x3712 (not $x1601)))
 (let (($x5854 (not (and $x1879 (not W_S2_V5) (not W_S2_V3) (not W_S2_V4)))))
 (let (($x2113 (not W_S2_V1)))
 (let (($x1173 (and $x1879 $x2113)))
 (let (($x4321 (not $x1173)))
 (let (($x3660 (forall ((V3_0 Int) )(forall ((V2_0 Int) )(forall ((V1_0 Int) )(forall ((V5_0 Int) )(forall ((V4_0 Int) )(forall ((S1_V4_!2813 Int) )(forall ((S1_V4_!2830 Int) )(forall ((S1_V4_!2840 Int) )(forall ((S2_V1_!2817 Int) )(forall ((S2_V1_!2822 Int) )(forall ((S2_V1_!2833 Int) )(forall ((S2_V1_!2843 Int) )(forall ((S2_V2_!2816 Int) )(forall ((S2_V2_!2821 Int) )(forall ((S2_V2_!2832 Int) )(forall ((S2_V2_!2842 Int) )(forall ((S1_V1_!2811 Int) )(forall ((S1_V1_!2828 Int) )(forall ((S1_V1_!2838 Int) )(forall ((S2_V3_!2815 Int) )(forall ((S2_V3_!2820 Int) )(forall ((S2_V3_!2831 Int) )(forall ((S2_V3_!2841 Int) )(forall ((E1_!2808 Int) )(forall ((E1_!2814 Int) )(forall ((E1_!2825 Int) )(forall ((S1_V3_!2809 Int) )(forall ((S1_V3_!2826 Int) )(forall ((S1_V3_!2836 Int) )(forall ((S1_V2_!2810 Int) )(forall ((S1_V2_!2827 Int) )(forall ((S1_V2_!2837 Int) )(forall ((S2_V4_!2819 Int) )(forall ((S2_V4_!2824 Int) )(forall ((S2_V4_!2835 Int) )(forall ((S2_V4_!2845 Int) )(forall ((S2_V5_!2818 Int) )(forall ((S2_V5_!2823 Int) )(forall ((S2_V5_!2834 Int) )(forall ((S2_V5_!2844 Int) )(forall ((S1_V5_!2812 Int) )(forall ((S1_V5_!2829 Int) )(forall ((S1_V5_!2839 Int) )(let ((?x458 (ite W_S1_V4 S1_V4_!2830 V4_0)))
 (let ((?x3739 (ite W_S2_V4 S2_V4_!2835 ?x458)))
 (let ((?x1011 (ite W_S1_V4 S1_V4_!2840 ?x3739)))
 (let (($x4118 (= (ite W_S2_V4 S2_V4_!2824 (ite W_S1_V4 S1_V4_!2813 V4_0)) (ite W_S2_V4 S2_V4_!2845 ?x1011))))
 (let ((?x2078 (ite W_S1_V5 S1_V5_!2829 V5_0)))
 (let ((?x3988 (ite W_S2_V5 S2_V5_!2834 ?x2078)))
 (let ((?x1785 (ite W_S1_V5 S1_V5_!2839 ?x3988)))
 (let (($x2983 (= (ite W_S2_V5 S2_V5_!2823 (ite W_S1_V5 S1_V5_!2812 V5_0)) (ite W_S2_V5 S2_V5_!2844 ?x1785))))
 (let ((?x2100 (ite W_S1_V1 S1_V1_!2828 E1_!2825)))
 (let ((?x1198 (ite W_S2_V1 S2_V1_!2833 ?x2100)))
 (let ((?x1508 (+ 1 ?x1198)))
 (let ((?x1232 (ite W_S1_V1 S1_V1_!2838 ?x1508)))
 (let ((?x164 (ite W_S2_V1 S2_V1_!2843 ?x1232)))
 (let ((?x1644 (ite W_S2_V1 S2_V1_!2817 E1_!2814)))
 (let ((?x896 (+ 1 ?x1644)))
 (let ((?x5277 (ite W_S2_V1 S2_V1_!2822 ?x896)))
 (let ((?x3312 (ite W_S1_V2 S1_V2_!2827 V2_0)))
 (let ((?x2502 (ite W_S2_V2 S2_V2_!2832 ?x3312)))
 (let ((?x67 (ite W_S1_V2 S1_V2_!2837 ?x2502)))
 (let ((?x268 (ite W_S2_V2 S2_V2_!2842 ?x67)))
 (let ((?x855 (ite W_S1_V2 S1_V2_!2810 V2_0)))
 (let ((?x319 (ite W_S2_V2 S2_V2_!2821 ?x855)))
 (let ((?x5105 (ite W_S1_V3 S1_V3_!2826 V3_0)))
 (let ((?x1045 (ite W_S2_V3 S2_V3_!2831 ?x5105)))
 (let ((?x1918 (ite W_S1_V3 S1_V3_!2836 ?x1045)))
 (let (($x320 (= (ite W_S2_V3 S2_V3_!2820 (ite W_S1_V3 S1_V3_!2809 V3_0)) (ite W_S2_V3 S2_V3_!2841 ?x1918))))
 (let (($x2296 (and (not (<= V2_0 E1_!2808)) (>= (ite W_S1_V1 S1_V1_!2811 E1_!2808) (+ (- 1) ?x855)) (not (<= ?x855 E1_!2814)) (not (<= (ite W_S2_V2 S2_V2_!2816 ?x855) ?x896)) (>= ?x5277 (+ (- 1) ?x319)) (not (<= V2_0 E1_!2825)) (not (<= ?x2502 ?x1508)) (>= ?x164 (+ (- 1) ?x268)))))
 (let (($x2563 (= S1_V5_!2839 S1_V5_!2829)))
 (let (($x5363 (not R_S1_V4)))
 (let (($x3452 (or $x5363 (= ?x3739 V4_0))))
 (let (($x1344 (not R_S1_V5)))
 (let (($x954 (or $x1344 (= ?x3988 V5_0))))
 (let (($x3728 (not R_S1_V2)))
 (let (($x5190 (or $x3728 (= ?x2502 V2_0))))
 (let (($x1051 (not R_S1_V3)))
 (let (($x5050 (or $x1051 (= ?x1045 V3_0))))
 (let (($x478 (and $x5050 $x5190 (or (not R_S1_V1) (= ?x1198 (+ (- 1) E1_!2825))) $x954 $x3452)))
 (let (($x644 (not $x478)))
 (let (($x1795 (and $x5050 $x5190 (or (not R_S1_V1) (= ?x1198 (+ (- 1) E1_!2808))) $x954 $x3452)))
 (let (($x496 (not $x1795)))
 (let (($x3410 (= S2_V5_!2844 S2_V5_!2834)))
 (let (($x5391 (and (or (not R_S2_V3) (= ?x1918 ?x5105)) (or (not R_S2_V2) (= ?x67 ?x3312)) (or (not R_S2_V1) (= ?x1232 ?x2100)) (or (not R_S2_V5) (= ?x1785 ?x2078)) (or (not R_S2_V4) (= ?x1011 ?x458)))))
 (let (($x4084 (not $x5391)))
 (let (($x3163 (= S2_V5_!2844 S2_V5_!2823)))
 (let (($x1036 (not R_S2_V4)))
 (let (($x5434 (not R_S2_V5)))
 (let (($x2392 (not R_S2_V3)))
 (let (($x250 (and (or $x2392 (= ?x1918 (ite W_S2_V3 S2_V3_!2815 (ite W_S1_V3 S1_V3_!2809 V3_0)))) (or (not R_S2_V2) (= ?x67 (ite W_S2_V2 S2_V2_!2816 ?x855))) (or (not R_S2_V1) (= ?x1232 ?x896)) (or $x5434 (= ?x1785 (ite W_S2_V5 S2_V5_!2818 (ite W_S1_V5 S1_V5_!2812 V5_0)))) (or $x1036 (= ?x1011 (ite W_S2_V4 S2_V4_!2819 (ite W_S1_V4 S1_V4_!2813 V4_0)))))))
 (let (($x2908 (not $x250)))
 (let (($x1019 (and (or $x2392 (= ?x1918 (ite W_S1_V3 S1_V3_!2809 V3_0))) (or (not R_S2_V2) (= ?x67 ?x855)) (or (not R_S2_V1) (= ?x1232 E1_!2814)) (or $x5434 (= ?x1785 (ite W_S1_V5 S1_V5_!2812 V5_0))) (or $x1036 (= ?x1011 (ite W_S1_V4 S1_V4_!2813 V4_0))))))
 (let (($x2816 (not $x1019)))
 (let (($x3444 (= S2_V5_!2834 S2_V5_!2823)))
 (let (($x1688 (and (or $x2392 (= ?x5105 (ite W_S2_V3 S2_V3_!2815 (ite W_S1_V3 S1_V3_!2809 V3_0)))) (or (not R_S2_V2) (= ?x3312 (ite W_S2_V2 S2_V2_!2816 ?x855))) (or (not R_S2_V1) (= ?x2100 ?x896)) (or $x5434 (= ?x2078 (ite W_S2_V5 S2_V5_!2818 (ite W_S1_V5 S1_V5_!2812 V5_0)))) (or $x1036 (= ?x458 (ite W_S2_V4 S2_V4_!2819 (ite W_S1_V4 S1_V4_!2813 V4_0)))))))
 (let (($x5969 (and (or $x2392 (= ?x5105 (ite W_S1_V3 S1_V3_!2809 V3_0))) (or (not R_S2_V2) (= ?x3312 ?x855)) (or (not R_S2_V1) (= ?x2100 E1_!2814)) (or $x5434 (= ?x2078 (ite W_S1_V5 S1_V5_!2812 V5_0))) (or $x1036 (= ?x458 (ite W_S1_V4 S1_V4_!2813 V4_0))))))
 (let (($x3291 (not $x5969)))
 (let ((?x287 (ite W_S1_V4 S1_V4_!2813 V4_0)))
 (let ((?x4817 (ite W_S2_V4 S2_V4_!2819 ?x287)))
 (let ((?x5059 (ite W_S1_V5 S1_V5_!2812 V5_0)))
 (let ((?x759 (ite W_S2_V5 S2_V5_!2818 ?x5059)))
 (let ((?x275 (ite W_S1_V3 S1_V3_!2809 V3_0)))
 (let ((?x2805 (ite W_S2_V3 S2_V3_!2815 ?x275)))
 (let (($x1506 (and (or $x2392 (= ?x2805 ?x275)) (or (not R_S2_V2) (= (ite W_S2_V2 S2_V2_!2816 ?x855) ?x855)) (or (not R_S2_V1) (= ?x1644 (+ (- 1) E1_!2814))) (or $x5434 (= ?x759 ?x5059)) (or $x1036 (= ?x4817 ?x287)))))
 (let (($x648 (not $x1506)))
 (let (($x4251 (= S2_V4_!2835 S2_V4_!2845)))
 (let (($x1525 (and (or $x2392 (= ?x5105 ?x1918)) (or (not R_S2_V2) (= ?x3312 ?x67)) (or (not R_S2_V1) (= ?x2100 ?x1232)) (or $x5434 (= ?x2078 ?x1785)) (or $x1036 (= ?x458 ?x1011)))))
 (let (($x5947 (not $x1525)))
 (let (($x3905 (and (or $x2392 (= ?x2805 ?x1918)) (or (not R_S2_V2) (= (ite W_S2_V2 S2_V2_!2816 ?x855) ?x67)) (or (not R_S2_V1) (= ?x1644 (+ (- 1) ?x1232))) (or $x5434 (= ?x759 ?x1785)) (or $x1036 (= ?x4817 ?x1011)))))
 (let (($x567 (not $x3905)))
 (let (($x5620 (and (or $x2392 (= ?x2805 ?x5105)) (or (not R_S2_V2) (= (ite W_S2_V2 S2_V2_!2816 ?x855) ?x3312)) (or (not R_S2_V1) (= ?x1644 (+ (- 1) ?x2100))) (or $x5434 (= ?x759 ?x2078)) (or $x1036 (= ?x4817 ?x458)))))
 (let (($x1086 (not $x5620)))
 (let (($x3865 (and (or $x2392 (= ?x275 ?x1918)) (or (not R_S2_V2) (= ?x855 ?x67)) (or (not R_S2_V1) (= E1_!2814 ?x1232)) (or $x5434 (= ?x5059 ?x1785)) (or $x1036 (= ?x287 ?x1011)))))
 (let (($x3664 (not $x3865)))
 (let (($x1780 (or $x5363 (= V4_0 ?x3739))))
 (let (($x1401 (or $x1344 (= V5_0 ?x3988))))
 (let (($x669 (or $x3728 (= V2_0 ?x2502))))
 (let (($x3984 (or $x1051 (= V3_0 ?x1045))))
 (let (($x2055 (not (and $x3984 $x669 (or (not R_S1_V1) (= E1_!2825 ?x1508)) $x1401 $x1780))))
 (let (($x2236 (not (and $x3984 $x669 (or (not R_S1_V1) (= E1_!2808 ?x1508)) $x1401 $x1780))))
 (let (($x5139 (and (or (not R_E1_V3) (= V3_0 ?x275)) (or (not R_E1_V2) (= V2_0 ?x855)) (or (not R_E1_V1) (= V1_0 (+ 1 (ite W_S1_V1 S1_V1_!2811 E1_!2808)))) (or (not R_E1_V5) (= V5_0 ?x5059)) (or (not R_E1_V4) (= V4_0 ?x287)))))
 (let (($x5260 (not $x5139)))
 (let (($x3737 (= E1_!2825 E1_!2808)))
 (let (($x2223 (and (or $x2392 (= ?x275 ?x5105)) (or (not R_S2_V2) (= ?x855 ?x3312)) (or (not R_S2_V1) (= E1_!2814 ?x2100)) (or $x5434 (= ?x5059 ?x2078)) (or $x1036 (= ?x287 ?x458)))))
 (let (($x2056 (not $x2223)))
 (let (($x559 (and (or $x2392 (= ?x275 ?x2805)) (or (not R_S2_V2) (= ?x855 (ite W_S2_V2 S2_V2_!2816 ?x855))) (or (not R_S2_V1) (= E1_!2814 ?x896)) (or $x5434 (= ?x5059 ?x759)) (or $x1036 (= ?x287 ?x4817)))))
 (let (($x5280 (not $x559)))
 (let (($x612 (and (or (not (or (not R_S1_V1) $x3737)) (= S1_V4_!2830 S1_V4_!2813)) (or $x496 (= S1_V4_!2840 S1_V4_!2813)) (or $x644 (= S1_V4_!2840 S1_V4_!2830)) (or $x5280 (= S2_V1_!2817 S2_V1_!2822)) (or $x2056 (= S2_V1_!2817 S2_V1_!2833)) (or $x1086 (= S2_V1_!2822 S2_V1_!2833)) (or $x2816 (= S2_V1_!2843 S2_V1_!2817)) (or $x2908 (= S2_V1_!2843 S2_V1_!2822)) (or $x4084 (= S2_V1_!2843 S2_V1_!2833)) (or $x5280 (= S2_V2_!2816 S2_V2_!2821)) (or $x2056 (= S2_V2_!2816 S2_V2_!2832)) (or $x3664 (= S2_V2_!2816 S2_V2_!2842)) (or $x1086 (= S2_V2_!2821 S2_V2_!2832)) (or $x567 (= S2_V2_!2821 S2_V2_!2842)) (or $x5947 (= S2_V2_!2832 S2_V2_!2842)) (or (not (or (not R_S1_V1) (= E1_!2808 E1_!2825))) (= S1_V1_!2811 S1_V1_!2828)) (or $x2236 (= S1_V1_!2811 S1_V1_!2838)) (or $x2055 (= S1_V1_!2828 S1_V1_!2838)) (or $x2056 (= S2_V3_!2815 S2_V3_!2831)) (or $x3664 (= S2_V3_!2815 S2_V3_!2841)) (or $x648 (= S2_V3_!2820 S2_V3_!2815)) (or $x1086 (= S2_V3_!2820 S2_V3_!2831)) (or $x567 (= S2_V3_!2820 S2_V3_!2841)) (or $x5947 (= S2_V3_!2831 S2_V3_!2841)) (or $x5260 (= E1_!2808 E1_!2814)) $x3737 (or $x5260 (= E1_!2825 E1_!2814)) (or (not (or (not R_S1_V1) $x3737)) (= S1_V3_!2826 S1_V3_!2809)) (or $x496 (= S1_V3_!2836 S1_V3_!2809)) (or $x644 (= S1_V3_!2836 S1_V3_!2826)) (or $x2236 (= S1_V2_!2810 S1_V2_!2837)) (or (not (or (not R_S1_V1) $x3737)) (= S1_V2_!2827 S1_V2_!2810)) (or $x2055 (= S1_V2_!2827 S1_V2_!2837)) (or $x3664 (= S2_V4_!2819 S2_V4_!2845)) (or $x648 (= S2_V4_!2824 S2_V4_!2819)) (or $x1086 (= S2_V4_!2824 S2_V4_!2835)) (or $x567 (= S2_V4_!2824 S2_V4_!2845)) (or $x3291 (= S2_V4_!2835 S2_V4_!2819)) (or $x5947 $x4251) (or $x648 (= S2_V5_!2823 S2_V5_!2818)) (or $x3291 (= S2_V5_!2834 S2_V5_!2818)) (or (not $x1688) $x3444) (or $x2816 (= S2_V5_!2844 S2_V5_!2818)) (or $x2908 $x3163) (or $x4084 $x3410) (or (not (or (not R_S1_V1) (= E1_!2808 E1_!2825))) (= S1_V5_!2812 S1_V5_!2829)) (or $x496 (= S1_V5_!2839 S1_V5_!2812)) (or $x644 $x2563))))
 (or (not $x612) (not $x2296) (and $x320 (= ?x319 ?x268) (= ?x5277 ?x164) $x2983 $x4118)))))))))))))))))))))))))))))))))))))))))))))))))))))))))))))))))))))))))))))))))))))))))
 )
 )
 )
 )
 )
 )
 )
 )
 )
 )
 )
 )
 )
 )
 )
 )
 )
 )
 )
 )
 )
 )
 )
 )
 )
 )
 )
 )
 )
 )
 )
 )
 )
 )
 )
 )
 )
 )
 )
 )
 )
 )
 ))
 (let (($x572 (not R_S1_V1)))
 (let (($x2811 (and $x1051 $x572 $x1344 $x3668)))
 (let (($x5363 (not R_S1_V4)))
 (let (($x72 (and $x1051 $x572 $x1344 $x5363)))
 (let (($x2058 (and $x1051 $x572 $x5363 $x583)))
 (let (($x3223 (and $x1051 $x572 $x3668 $x583)))
 (let (($x1504 (and $x572 $x1344 $x5363 $x1862)))
 (let (($x3213 (and $x572 $x1344 $x1862 $x3668)))
 (let (($x604 (and $x572 $x5363 $x1862 $x583)))
 (let (($x1974 (not W_S1_V1)))
 (let (($x1638 (not W_S1_V2)))
 (let (($x1014 (not R_E1_V4)))
 (let (($x1825 (and $x1014 $x1862 $x1638 $x583)))
 (let (($x5110 (not R_E1_V5)))
 (let (($x751 (and $x5110 $x1862 $x3668 $x1638)))
 (let (($x5440 (and $x5110 $x1014 $x1862 $x1638)))
 (let (($x5351 (not R_E1_V3)))
 (let (($x2214 (and $x5351 $x3668 $x1638 $x583)))
 (let (($x3661 (and $x5351 $x1014 $x1638 $x583)))
 (let (($x5879 (and $x5351 $x5110 $x3668 $x1638)))
 (let (($x3315 (and $x5351 $x5110 $x1014 $x1638)))
 (let (($x2713 (and $x1862 $x3668 $x1638 $x583)))
 (let (($x4983 (not R_E1_V1)))
 (let (($x1931 (and $x4983 (or $x2713 $x3315 $x5879 $x3661 $x2214 $x5440 $x751 $x1825) $x1974 (or $x1173 $x1601 $x604 $x3213 $x1504 $x3223 $x2058 $x72 $x2811))))
 (and $x1931 $x3660 $x4321 $x5854 $x3712 $x3420 $x3021 $x2653 $x2312 $x1880 $x5794 $x1664 $x1872 $x2493)))))))))))))))))))))))))))))))))))))))))))))))))))))
(check-sat)
